c Sudoku solution
p cnf 729 0
146 0
172 0
198 0
214 0
231 0
343 0
415 0
451 0
484 0
548 0
728 0
757 0
765 0
829 0
876 0
954 0
966 0
644 0
524 0
245 0
447 0
159 0
164 0
361 0
267 0
181 0
258 0
352 0
222 0
853 0
868 0
985 0
978 0
835 0
734 0
716 0
894 0
125 0
374 0
438 0
318 0
339 0
326 0
423 0
479 0
496 0
462 0
688 0
273 0
771 0
387 0
395 0
286 0
299 0
882 0
997 0
742 0
841 0
949 0
817 0
921 0
113 0
137 0
912 0
933 0
627 0
675 0
577 0
555 0
656 0
536 0
632 0
583 0
592 0
691 0
511 0
619 0
569 0
663 0
789 0
793 0
